fcc:                                    
   4.00000000000000     
     0.4832863609075251    0.4832863609075251    0.0000000000000000
     0.0000000000000000    0.4832863609075251    0.4832863609075251
     0.4832863609075251    0.0000000000000000    0.4832863609075251
   Si
     1
Direct
  0.0000000000000000  0.0000000000000000  0.0000000000000000
 
  0.00000000E+00  0.00000000E+00  0.00000000E+00
